&control
	calculation = 'scf',
	prefix = 'sn.alpha.12.47',
/
&system
	ibrav = 2,
	celldm(1) = 12.47,
	nat = 2,
	ntyp = 1,
	ecutwfc = 50,
	ecutrho = 400,
/
&electrons
	mixing_beta = 0.7,
	conv_thr = 1.0d-8,
/
ATOMIC_SPECIES
 Sn 118.71 sn_pbe_v1.4.uspp.F.UPF
ATOMIC_POSITIONS
 Sn 0.00 0.00 0.00
 Sn 0.25 0.25 0.25
K_POINTS automatic
 8 8 8	1 1 1
