&input
        fildyn = 'sn.alpha.12.56.dyn',
        zasr = 'simple',
        flfrc = 'sn.alpha.888.12.56.fc',
/

