&input
fildyn='sn.beta.dyn',
zasr = 'simple',
flfrc = 'sn.beta.888.fc',
/
